(set-info :smt-lib-version 2.6)
(set-logic QF_FP)
(set-info :source |Random FP created by PyMPF|)
(set-info :license |https://www.gnu.org/licenses/gpl-3.0.html|)
(set-info :category random)
(set-info :status unsat)
(declare-const x Float32)
(assert (= x ((_ to_fp 8 24) #xFF800000)))
;; x should be Float32(-oo)

(declare-const y Float32)
(assert (= y (fp #b0 #b10010100 #b00100110000010111101010)))
;; y should be Float32(0x4A1305EA [Rational(4817653, 2), 2408826.500000])

(declare-const result Float32)
(assert (= result (fp.add RTP x y)))
(assert (not (= result (fp #b1 #b11111111 #b00000000000000000000000))))
(check-sat)
(exit)
